LAMMPS (5 Jun 2019)
# Big colloid particles and small LJ particles

units		lj
atom_style	sphere
dimension	2

lattice		sq 0.01
Lattice spacing in x,y,z = 10 10 10
region		box block 0 30 0 30 -0.5 0.5
create_box	2 box
Created orthogonal box = (0 0 -5) to (300 300 5)
  1 by 1 by 1 MPI processor grid
create_atoms	1 box
Created 900 atoms
  create_atoms CPU = 0.000612974 secs

set		group all type/fraction 2 0.96 23984
  861 settings made for type/fraction

set		type 1 mass 9
  39 settings made for mass
set		type 2 mass 1
  861 settings made for mass

velocity	all create 1.44 87287 loop geom

# multi neighbor and comm for efficiency

neighbor	1 multi
neigh_modify	delay 0
comm_modify     mode multi

# colloid potential

pair_style	colloid 12.5
pair_coeff	1 1  1.0 1.0 5.0 5.0 12.5
pair_coeff	1 2  5.0 1.0 5.0 0.0 7.0
pair_coeff	2 2 10.0 1.0 0.0 0.0 2.5

fix		1 all npt temp 2.0 2.0 1.0 iso 0.0 1.0 10.0 drag 1.0 	        mtk no pchain 0 tchain 1
fix		2 all enforce2d

#dump		1 all atom 1000 dump.colloid

dump		2 all image 1000 image.*.jpg type type 		zoom 1.5 center d 0.5 0.5 0.5
#dump_modify	2 pad 5 adiam 1 5.0 adiam 2 1.5

#dump		3 all movie 1000 movie.mpg type type #		zoom 1.5 center d 0.5 0.5 0.5
#dump_modify	3 pad 5 adiam 1 5.0 adiam 2 1.5

thermo_style	custom step temp epair etotal press vol
thermo		1000

timestep	0.005

run		50000
Neighbor list info ...
  update every 1 steps, delay 0 steps, check yes
  max neighbors/atom: 2000, page size: 100000
  master list distance cutoff = 13.5
  ghost atom cutoff = 13.5
  binsize = 1.75, bins = 172 172 6
  1 neighbor lists, perpetual/occasional/extra = 1 0 0
  (1) pair colloid, perpetual
      attributes: half, newton on
      pair build: half/multi/newton
      stencil: half/multi/2d/newton
      bin: standard
Per MPI rank memory allocation (min/avg/max) = 4.709 | 4.709 | 4.709 Mbytes
Step Temp E_pair TotEng Press Volume 
       0         1.44 -2.2136534e-06    1.4383978  0.014383923        90000 
    1000    1.9572809 -0.00036743274    1.9547388  0.017982269    98935.161 
    2000     2.068567 -0.0010518227    2.0652168  0.019466739    96307.439 
    3000    2.1787472 0.0045846363     2.180911  0.029249545     68560.31 
    4000    2.1979309 0.0017234058    2.1972121  0.048831814    42699.657 
    5000    2.1541368 0.0068842503    2.1586276   0.07471981    28571.492 
    6000     2.111318 0.0024189699    2.1113911  0.091799665     21611.61 
    7000     2.078952 0.0060036924    2.0826458    0.1163485    17868.764 
    8000    2.0644838 0.0046363892    2.0668263   0.12916005     15516.79 
    9000    2.0573751   0.00421821    2.0593073   0.14690111    13861.505 
   10000    2.0477124  0.013077332    2.0585145   0.16973343    12537.177 
   11000    2.0408042  0.016369959    2.0549066   0.19319519    11454.382 
   12000    2.0379198   0.01788159     2.053537   0.20555413    10544.324 
   13000    2.0259265  0.028542881    2.0522184   0.23916343      9786.36 
   14000    2.0348607  0.019934746    2.0525345   0.25798805    9130.5084 
   15000    2.0295687  0.022336712    2.0496503   0.25754997    8601.5068 
   16000    2.0375243   0.01237921    2.0476396    0.2754245    8119.4026 
   17000     2.026062  0.025263415    2.0490743   0.31721047    7713.4653 
   18000    2.0137602  0.039255927    2.0507786   0.37782694    7367.7735 
   19000    2.0152723  0.039091913     2.052125   0.39568647    7060.9791 
   20000    2.0077041  0.046785478    2.0522588   0.38955217     6783.823 
   21000    2.0414823   0.01881672    2.0580307   0.37667077    6505.4039 
   22000    2.0320273  0.022131944    2.0519014   0.41241604    6291.4169 
   23000    2.0276002  0.032334588    2.0576819   0.43199301     6069.457 
   24000    2.0232298  0.028246627    2.0492283   0.47523895    5899.0217 
   25000    2.0193566  0.039093192    2.0562061    0.4912793    5710.7706 
   26000    2.0233703  0.035634886     2.056757   0.55149479    5544.6564 
   27000    2.0117282  0.046055364    2.0555483   0.46890646    5433.0362 
   28000    2.0345392  0.032003324     2.064282   0.51429595    5290.3154 
   29000    2.0218966   0.04099434    2.0606444   0.55994686     5179.679 
   30000    2.0166373  0.045666647    2.0600632   0.59994475    5096.9561 
   31000    2.0014096  0.071543956    2.0707297   0.73322639     4957.527 
   32000    2.0251751  0.048044282    2.0709692   0.58590244    4830.2804 
   33000    1.9890408  0.075744356    2.0625751   0.64093988    4718.7173 
   34000     2.009377  0.056885702    2.0640301   0.62723378    4629.1165 
   35000    2.0094954  0.061629426     2.068892   0.64884709    4564.6171 
   36000    2.0114443  0.056582437    2.0657918   0.73062307    4500.3211 
   37000    2.0246109  0.046173201    2.0685345   0.66835388    4437.6045 
   38000    2.0167062  0.058665941    2.0731314   0.73295433    4375.3182 
   39000    1.9967433  0.086571497    2.0810962   0.88699259    4298.4773 
   40000     2.002468   0.07717893     2.077422    0.8123434    4261.4999 
   41000    2.0079345  0.071852985    2.0775565    0.7355439    4222.8784 
   42000    2.0154595  0.075805536    2.0890256   0.80648232    4144.7287 
   43000    2.0393984  0.050703873    2.0878363   0.80698699    4044.9823 
   44000     2.006109  0.081543708    2.0854237   0.96636042    3966.9876 
   45000    2.0258348  0.055211339    2.0787952   0.83071659    3956.3287 
   46000    2.0235731   0.06802352    2.0893482   0.87916195    3914.7674 
   47000    2.0280346   0.05661797    2.0823992   0.90430452    3901.1362 
   48000    2.0373868  0.063825383    2.0989485   0.92810162    3844.3254 
   49000    1.9907239   0.10322487    2.0917368    1.0098857    3806.6027 
   50000     2.011242  0.088361888    2.0973692   0.98070506    3750.3256 
Loop time of 6.12251 on 1 procs for 50000 steps with 900 atoms

Performance: 3527962.528 tau/day, 8166.580 timesteps/s
98.6% CPU use with 1 MPI tasks x no OpenMP threads

MPI task timing breakdown:
Section |  min time  |  avg time  |  max time  |%varavg| %total
---------------------------------------------------------------
Pair    | 2.8176     | 2.8176     | 2.8176     |   0.0 | 46.02
Neigh   | 1.0928     | 1.0928     | 1.0928     |   0.0 | 17.85
Comm    | 0.20957    | 0.20957    | 0.20957    |   0.0 |  3.42
Output  | 0.45472    | 0.45472    | 0.45472    |   0.0 |  7.43
Modify  | 1.3657     | 1.3657     | 1.3657     |   0.0 | 22.31
Other   |            | 0.1821     |            |       |  2.97

Nlocal:    900 ave 900 max 900 min
Histogram: 1 0 0 0 0 0 0 0 0 0
Nghost:    529 ave 529 max 529 min
Histogram: 1 0 0 0 0 0 0 0 0 0
Neighs:    5904 ave 5904 max 5904 min
Histogram: 1 0 0 0 0 0 0 0 0 0

Total # of neighbors = 5904
Ave neighs/atom = 6.56
Neighbor list builds = 3095
Dangerous builds = 0

Please see the log.cite file for references relevant to this simulation

Total wall time: 0:00:06
